50
90.34
0 49 3.78 4.49
1 48 3.78 4.33
2 47 3.39 4.42
3 46 3.0 4.72
4 45 2.7 5.02
5 44 3.61 3.86
6 43 3.53 4.54
7 42 3.48 4.07
8 41 3.23 4.65
9 40 3.07 4.61
10 39 3.78 4.46
11 38 3.46 4.45
12 37 3.45 4.27
13 36 3.09 4.17
14 35 2.59 4.63
15 34 3.78 4.15
16 33 4.1 4.11
17 32 3.45 4.59
18 31 2.94 4.01
19 30 2.93 4.55
20 29 3.7 4.07
21 28 4.12 4.17
22 27 3.13 3.77
23 26 3.31 4.67
24 25 3.39 4.26
25 24 4.35 4.22
26 23 3.02 4.07
27 22 4.18 4.08
28 21 3.31 4.62
29 20 3.45 4.42
30 19 4.31 3.7
31 18 4.61 3.98
32 17 4.05 3.71
33 16 2.93 4.09
34 15 3.13 4.25
35 14 3.23 3.78
36 13 4.63 3.2
37 12 4.84 3.71
38 11 3.81 3.75
39 10 3.15 4.38
40 9 6.9 2.36
41 8 5.5 3.66
42 7 4.7 3.48
43 6 3.51 3.42
44 5 3.48 3.9
45 4 12.71 0.97
46 3 7.51 0.68
47 2 9.75 1.0
48 1 7.14 1.06
